Route #1: 20 15 60 67 66 39
Route #2: 27 8 36 54 12 59 13
Route #3: 30 6 38 21 71 61 72 70 37 48
Route #4: 41 40 10 33 45 4
Route #5: 47 9 55 14 58 16 49 31
Route #6: 50 25 51 19 56 26 32 11 73
Route #7: 62 23 65 43 42 44 57 24
Route #8: 68 35 53 28 46 5
Route #9: 74 2 63 29 22 75 3
Route #10: 76 69 7 34 64 17 52 18
cost 859